c File: flat50_3_0.col
c
c SOURCE: Joseph Culberson (joe@cs.ualberta.ca)
c DESCRIPTION: Quasi-random coloring problem
c              generated with flatness = 0
c                             probability = 0.139
c                             known coloring = 3
c                             random seed = 1214
c              Creation Date:  Tue Jun  9 12:03:54 1998
c Maximum degree = 8 Minimum degree = 1
c p edge 50 115
c cnf created by edge2cnf
p cnf 150 545
-1 -2 0
-1 -3 0
-2 -3 0
1 2 3 0
-4 -5 0
-4 -6 0
-5 -6 0
4 5 6 0
-7 -8 0
-7 -9 0
-8 -9 0
7 8 9 0
-10 -11 0
-10 -12 0
-11 -12 0
10 11 12 0
-13 -14 0
-13 -15 0
-14 -15 0
13 14 15 0
-16 -17 0
-16 -18 0
-17 -18 0
16 17 18 0
-19 -20 0
-19 -21 0
-20 -21 0
19 20 21 0
-22 -23 0
-22 -24 0
-23 -24 0
22 23 24 0
-25 -26 0
-25 -27 0
-26 -27 0
25 26 27 0
-28 -29 0
-28 -30 0
-29 -30 0
28 29 30 0
-31 -32 0
-31 -33 0
-32 -33 0
31 32 33 0
-34 -35 0
-34 -36 0
-35 -36 0
34 35 36 0
-37 -38 0
-37 -39 0
-38 -39 0
37 38 39 0
-40 -41 0
-40 -42 0
-41 -42 0
40 41 42 0
-43 -44 0
-43 -45 0
-44 -45 0
43 44 45 0
-46 -47 0
-46 -48 0
-47 -48 0
46 47 48 0
-49 -50 0
-49 -51 0
-50 -51 0
49 50 51 0
-52 -53 0
-52 -54 0
-53 -54 0
52 53 54 0
-55 -56 0
-55 -57 0
-56 -57 0
55 56 57 0
-58 -59 0
-58 -60 0
-59 -60 0
58 59 60 0
-61 -62 0
-61 -63 0
-62 -63 0
61 62 63 0
-64 -65 0
-64 -66 0
-65 -66 0
64 65 66 0
-67 -68 0
-67 -69 0
-68 -69 0
67 68 69 0
-70 -71 0
-70 -72 0
-71 -72 0
70 71 72 0
-73 -74 0
-73 -75 0
-74 -75 0
73 74 75 0
-76 -77 0
-76 -78 0
-77 -78 0
76 77 78 0
-79 -80 0
-79 -81 0
-80 -81 0
79 80 81 0
-82 -83 0
-82 -84 0
-83 -84 0
82 83 84 0
-85 -86 0
-85 -87 0
-86 -87 0
85 86 87 0
-88 -89 0
-88 -90 0
-89 -90 0
88 89 90 0
-91 -92 0
-91 -93 0
-92 -93 0
91 92 93 0
-94 -95 0
-94 -96 0
-95 -96 0
94 95 96 0
-97 -98 0
-97 -99 0
-98 -99 0
97 98 99 0
-100 -101 0
-100 -102 0
-101 -102 0
100 101 102 0
-103 -104 0
-103 -105 0
-104 -105 0
103 104 105 0
-106 -107 0
-106 -108 0
-107 -108 0
106 107 108 0
-109 -110 0
-109 -111 0
-110 -111 0
109 110 111 0
-112 -113 0
-112 -114 0
-113 -114 0
112 113 114 0
-115 -116 0
-115 -117 0
-116 -117 0
115 116 117 0
-118 -119 0
-118 -120 0
-119 -120 0
118 119 120 0
-121 -122 0
-121 -123 0
-122 -123 0
121 122 123 0
-124 -125 0
-124 -126 0
-125 -126 0
124 125 126 0
-127 -128 0
-127 -129 0
-128 -129 0
127 128 129 0
-130 -131 0
-130 -132 0
-131 -132 0
130 131 132 0
-133 -134 0
-133 -135 0
-134 -135 0
133 134 135 0
-136 -137 0
-136 -138 0
-137 -138 0
136 137 138 0
-139 -140 0
-139 -141 0
-140 -141 0
139 140 141 0
-142 -143 0
-142 -144 0
-143 -144 0
142 143 144 0
-145 -146 0
-145 -147 0
-146 -147 0
145 146 147 0
-148 -149 0
-148 -150 0
-149 -150 0
148 149 150 0
-79 -1 0
-80 -2 0
-81 -3 0
-94 -1 0
-95 -2 0
-96 -3 0
-106 -1 0
-107 -2 0
-108 -3 0
-124 -1 0
-125 -2 0
-126 -3 0
-133 -1 0
-134 -2 0
-135 -3 0
-139 -1 0
-140 -2 0
-141 -3 0
-55 -4 0
-56 -5 0
-57 -6 0
-55 -7 0
-56 -8 0
-57 -9 0
-58 -7 0
-59 -8 0
-60 -9 0
-73 -7 0
-74 -8 0
-75 -9 0
-136 -7 0
-137 -8 0
-138 -9 0
-148 -7 0
-149 -8 0
-150 -9 0
-52 -10 0
-53 -11 0
-54 -12 0
-91 -10 0
-92 -11 0
-93 -12 0
-139 -10 0
-140 -11 0
-141 -12 0
-58 -13 0
-59 -14 0
-60 -15 0
-88 -13 0
-89 -14 0
-90 -15 0
-94 -13 0
-95 -14 0
-96 -15 0
-52 -16 0
-53 -17 0
-54 -18 0
-73 -16 0
-74 -17 0
-75 -18 0
-79 -16 0
-80 -17 0
-81 -18 0
-121 -16 0
-122 -17 0
-123 -18 0
-136 -16 0
-137 -17 0
-138 -18 0
-142 -16 0
-143 -17 0
-144 -18 0
-145 -16 0
-146 -17 0
-147 -18 0
-52 -19 0
-53 -20 0
-54 -21 0
-58 -19 0
-59 -20 0
-60 -21 0
-70 -19 0
-71 -20 0
-72 -21 0
-73 -19 0
-74 -20 0
-75 -21 0
-118 -19 0
-119 -20 0
-120 -21 0
-130 -19 0
-131 -20 0
-132 -21 0
-67 -22 0
-68 -23 0
-69 -24 0
-85 -22 0
-86 -23 0
-87 -24 0
-94 -22 0
-95 -23 0
-96 -24 0
-97 -22 0
-98 -23 0
-99 -24 0
-124 -22 0
-125 -23 0
-126 -24 0
-130 -22 0
-131 -23 0
-132 -24 0
-148 -22 0
-149 -23 0
-150 -24 0
-85 -25 0
-86 -26 0
-87 -27 0
-100 -25 0
-101 -26 0
-102 -27 0
-133 -25 0
-134 -26 0
-135 -27 0
-61 -28 0
-62 -29 0
-63 -30 0
-73 -28 0
-74 -29 0
-75 -30 0
-94 -28 0
-95 -29 0
-96 -30 0
-97 -28 0
-98 -29 0
-99 -30 0
-133 -28 0
-134 -29 0
-135 -30 0
-121 -31 0
-122 -32 0
-123 -33 0
-127 -31 0
-128 -32 0
-129 -33 0
-52 -34 0
-53 -35 0
-54 -36 0
-76 -34 0
-77 -35 0
-78 -36 0
-97 -34 0
-98 -35 0
-99 -36 0
-106 -34 0
-107 -35 0
-108 -36 0
-109 -34 0
-110 -35 0
-111 -36 0
-115 -34 0
-116 -35 0
-117 -36 0
-148 -34 0
-149 -35 0
-150 -36 0
-79 -37 0
-80 -38 0
-81 -39 0
-82 -37 0
-83 -38 0
-84 -39 0
-85 -37 0
-86 -38 0
-87 -39 0
-100 -37 0
-101 -38 0
-102 -39 0
-130 -37 0
-131 -38 0
-132 -39 0
-133 -37 0
-134 -38 0
-135 -39 0
-55 -40 0
-56 -41 0
-57 -42 0
-67 -40 0
-68 -41 0
-69 -42 0
-76 -40 0
-77 -41 0
-78 -42 0
-106 -40 0
-107 -41 0
-108 -42 0
-124 -40 0
-125 -41 0
-126 -42 0
-136 -40 0
-137 -41 0
-138 -42 0
-148 -40 0
-149 -41 0
-150 -42 0
-121 -43 0
-122 -44 0
-123 -45 0
-127 -43 0
-128 -44 0
-129 -45 0
-124 -46 0
-125 -47 0
-126 -48 0
-142 -46 0
-143 -47 0
-144 -48 0
-85 -49 0
-86 -50 0
-87 -51 0
-97 -49 0
-98 -50 0
-99 -51 0
-103 -49 0
-104 -50 0
-105 -51 0
-127 -49 0
-128 -50 0
-129 -51 0
-130 -49 0
-131 -50 0
-132 -51 0
-112 -52 0
-113 -53 0
-114 -54 0
-121 -52 0
-122 -53 0
-123 -54 0
-136 -52 0
-137 -53 0
-138 -54 0
-112 -55 0
-113 -56 0
-114 -57 0
-118 -55 0
-119 -56 0
-120 -57 0
-124 -55 0
-125 -56 0
-126 -57 0
-103 -58 0
-104 -59 0
-105 -60 0
-109 -58 0
-110 -59 0
-111 -60 0
-136 -58 0
-137 -59 0
-138 -60 0
-106 -61 0
-107 -62 0
-108 -63 0
-118 -61 0
-119 -62 0
-120 -63 0
-142 -61 0
-143 -62 0
-144 -63 0
-112 -64 0
-113 -65 0
-114 -66 0
-118 -64 0
-119 -65 0
-120 -66 0
-109 -67 0
-110 -68 0
-111 -69 0
-112 -67 0
-113 -68 0
-114 -69 0
-127 -67 0
-128 -68 0
-129 -69 0
-115 -73 0
-116 -74 0
-117 -75 0
-121 -73 0
-122 -74 0
-123 -75 0
-139 -73 0
-140 -74 0
-141 -75 0
-106 -76 0
-107 -77 0
-108 -78 0
-118 -76 0
-119 -77 0
-120 -78 0
-139 -76 0
-140 -77 0
-141 -78 0
-145 -76 0
-146 -77 0
-147 -78 0
-103 -79 0
-104 -80 0
-105 -81 0
-106 -79 0
-107 -80 0
-108 -81 0
-145 -79 0
-146 -80 0
-147 -81 0
-121 -85 0
-122 -86 0
-123 -87 0
-109 -88 0
-110 -89 0
-111 -90 0
-145 -88 0
-146 -89 0
-147 -90 0
-121 -91 0
-122 -92 0
-123 -93 0
-133 -91 0
-134 -92 0
-135 -93 0
-124 -97 0
-125 -98 0
-126 -99 0
-139 -97 0
-140 -98 0
-141 -99 0
-145 -97 0
-146 -98 0
-147 -99 0
-148 -97 0
-149 -98 0
-150 -99 0
-103 -100 0
-104 -101 0
-105 -102 0
-127 -100 0
-128 -101 0
-129 -102 0
